Running for instance ./models/rc201.txt
Generating routes...
Execution time:  7.833879  seconds
Academic license - for non-commercial use only
Warning: constraint name "Cliente esta na rota x1" has a space
Optimize a model with 26 rows, 10000 columns and 60528 nonzeros
Variable types: 0 continuous, 10000 integer (0 binary)
Coefficient statistics:
  Matrix range     [1e+00, 1e+00]
  Objective range  [6e+01, 4e+02]
  Bounds range     [1e+00, 1e+00]
  RHS range        [1e+00, 2e+01]
Found heuristic solution: objective 811.3620203
Presolve removed 1 rows and 2461 columns
Presolve time: 0.06s
Presolved: 25 rows, 7539 columns, 37897 nonzeros
Found heuristic solution: objective 758.6387176
Variable types: 0 continuous, 7539 integer (7539 binary)

Root relaxation: objective 5.124847e+02, 119 iterations, 0.01 seconds

    Nodes    |    Current Node    |     Objective Bounds      |     Work
 Expl Unexpl |  Obj  Depth IntInf | Incumbent    BestBd   Gap | It/Node Time

     0     0  512.48471    0   11  758.63872  512.48471  32.4%     -    0s
H    0     0                     537.5763528  512.48471  4.67%     -    0s
     0     0  513.90079    0   17  537.57635  513.90079  4.40%     -    0s
     0     0  513.95422    0   11  537.57635  513.95422  4.39%     -    0s
     0     0  513.95422    0   11  537.57635  513.95422  4.39%     -    0s
     0     0  516.40958    0   13  537.57635  516.40958  3.94%     -    0s
H    0     0                     531.6598698  516.40958  2.87%     -    0s
H    0     0                     527.2959163  516.40958  2.06%     -    0s
*    0     0               0     526.7691543  526.76915  0.00%     -    0s

Explored 1 nodes (185 simplex iterations) in 0.18 seconds
Thread count was 8 (of 8 available processors)

Solution count 6: 526.769 527.296 531.66 ... 758.639

Optimal solution found (tolerance 1.00e-04)
Best objective 5.267691542695e+02, best bound 5.267691542695e+02, gap 0.0000%

Routes:
11 12 17 13 24 25
2 7 6 8 3 1 4
5 23 21 19 18 22 20
14 16 15 9 10

Distance: 526.769154269
Execution time:  8.866981  seconds
